
Gurobi 8.1.1 (win64, Python) logging started 10/10/19 12:27:19

Academic license - for non-commercial use only

Gurobi 8.1.1 (win64, Python) logging started 10/10/19 12:48:13

Academic license - for non-commercial use only

Gurobi 8.1.1 (win64, Python) logging started 10/10/19 12:48:41

Academic license - for non-commercial use only
Optimize a model with 7 rows, 5 columns and 19 nonzeros
Variable types: 3 continuous, 2 integer (2 binary)
Coefficient statistics:
  Matrix range     [5e-09, 4e+00]
  Objective range  [1e+00, 1e+00]
  Bounds range     [1e+00, 4e+00]
  RHS range        [9e-09, 8e+00]
Presolve removed 0 rows and 1 columns
Presolve time: 0.00s

Explored 0 nodes (0 simplex iterations) in 0.03 seconds
Thread count was 1 (of 4 available processors)

Solution count 0

Model is infeasible or unbounded
Best objective -, best bound -, gap -
Optimize a model with 7 rows, 5 columns and 19 nonzeros
Variable types: 3 continuous, 2 integer (2 binary)
Coefficient statistics:
  Matrix range     [5e-09, 4e+00]
  Objective range  [1e+00, 1e+00]
  Bounds range     [1e+00, 4e+00]
  RHS range        [9e-09, 8e+00]
Presolve removed 0 rows and 1 columns
Presolve time: 0.00s

Explored 0 nodes (0 simplex iterations) in 0.04 seconds
Thread count was 1 (of 4 available processors)

Solution count 0

Model is infeasible or unbounded
Best objective -, best bound -, gap -
Optimize a model with 7 rows, 5 columns and 19 nonzeros
Variable types: 3 continuous, 2 integer (2 binary)
Coefficient statistics:
  Matrix range     [5e-09, 4e+00]
  Objective range  [1e+00, 1e+00]
  Bounds range     [1e+00, 4e+00]
  RHS range        [9e-09, 8e+00]
Presolve removed 0 rows and 1 columns
Presolve time: 0.00s

Explored 0 nodes (0 simplex iterations) in 0.03 seconds
Thread count was 1 (of 4 available processors)

Solution count 0

Model is infeasible or unbounded
Best objective -, best bound -, gap -

Gurobi 8.1.1 (win64, Python) logging started 10/10/19 13:06:17

Academic license - for non-commercial use only
Optimize a model with 8 rows, 5 columns and 21 nonzeros
Variable types: 3 continuous, 2 integer (2 binary)
Coefficient statistics:
  Matrix range     [5e-09, 4e+00]
  Objective range  [1e+00, 1e+00]
  Bounds range     [1e+00, 4e+00]
  RHS range        [9e-09, 8e+00]
Presolve time: 0.00s

Explored 0 nodes (0 simplex iterations) in 0.02 seconds
Thread count was 1 (of 4 available processors)

Solution count 0

Model is infeasible or unbounded
Best objective -, best bound -, gap -
Optimize a model with 8 rows, 5 columns and 21 nonzeros
Variable types: 3 continuous, 2 integer (2 binary)
Coefficient statistics:
  Matrix range     [5e-09, 4e+00]
  Objective range  [1e+00, 1e+00]
  Bounds range     [1e+00, 4e+00]
  RHS range        [9e-09, 8e+00]
Presolve removed 3 rows and 1 columns
Presolve time: 0.01s
Presolved: 5 rows, 4 columns, 12 nonzeros
Variable types: 3 continuous, 1 integer (1 binary)

Root relaxation: objective 5.000000e+00, 3 iterations, 0.00 seconds

    Nodes    |    Current Node    |     Objective Bounds      |     Work
 Expl Unexpl |  Obj  Depth IntInf | Incumbent    BestBd   Gap | It/Node Time

     0     0    5.00000    0    1          -    5.00000      -     -    0s
H    0     0                       5.0000000    5.00000  0.00%     -    0s

Explored 1 nodes (3 simplex iterations) in 0.09 seconds
Thread count was 4 (of 4 available processors)

Solution count 1: 5 

Optimal solution found (tolerance 1.00e-04)
Best objective 5.000000003306e+00, best bound 5.000000003306e+00, gap 0.0000%

Gurobi 8.1.1 (win64, Python) logging started 10/10/19 13:08:19

Academic license - for non-commercial use only
Optimize a model with 8 rows, 5 columns and 21 nonzeros
Variable types: 3 continuous, 2 integer (2 binary)
Coefficient statistics:
  Matrix range     [5e-09, 4e+00]
  Objective range  [1e+00, 1e+00]
  Bounds range     [1e+00, 4e+00]
  RHS range        [9e-09, 8e+00]
Presolve removed 3 rows and 1 columns
Presolve time: 0.00s
Presolved: 5 rows, 4 columns, 12 nonzeros
Variable types: 3 continuous, 1 integer (1 binary)

Root relaxation: objective 5.000000e+00, 3 iterations, 0.00 seconds

    Nodes    |    Current Node    |     Objective Bounds      |     Work
 Expl Unexpl |  Obj  Depth IntInf | Incumbent    BestBd   Gap | It/Node Time

     0     0    5.00000    0    1          -    5.00000      -     -    0s
H    0     0                       5.0000000    5.00000  0.00%     -    0s

Explored 1 nodes (3 simplex iterations) in 0.07 seconds
Thread count was 4 (of 4 available processors)

Solution count 1: 5 

Optimal solution found (tolerance 1.00e-04)
Best objective 5.000000003306e+00, best bound 5.000000003306e+00, gap 0.0000%

Gurobi 8.1.1 (win64, Python) logging started 10/10/19 13:08:50

Academic license - for non-commercial use only
Optimize a model with 8 rows, 5 columns and 21 nonzeros
Variable types: 3 continuous, 2 integer (2 binary)
Coefficient statistics:
  Matrix range     [5e-09, 4e+00]
  Objective range  [1e+00, 1e+00]
  Bounds range     [1e+00, 4e+00]
  RHS range        [9e-09, 8e+00]
Presolve removed 3 rows and 1 columns
Presolve time: 0.00s
Presolved: 5 rows, 4 columns, 12 nonzeros
Variable types: 3 continuous, 1 integer (1 binary)

Root relaxation: objective 5.000000e+00, 3 iterations, 0.00 seconds

    Nodes    |    Current Node    |     Objective Bounds      |     Work
 Expl Unexpl |  Obj  Depth IntInf | Incumbent    BestBd   Gap | It/Node Time

     0     0    5.00000    0    1          -    5.00000      -     -    0s
H    0     0                       5.0000000    5.00000  0.00%     -    0s

Explored 1 nodes (3 simplex iterations) in 0.06 seconds
Thread count was 4 (of 4 available processors)

Solution count 1: 5 

Optimal solution found (tolerance 1.00e-04)
Best objective 5.000000003306e+00, best bound 5.000000003306e+00, gap 0.0000%

Gurobi 8.1.1 (win64, Python) logging started 10/10/19 13:09:16

Academic license - for non-commercial use only
Optimize a model with 8 rows, 5 columns and 21 nonzeros
Variable types: 3 continuous, 2 integer (2 binary)
Coefficient statistics:
  Matrix range     [5e-09, 4e+00]
  Objective range  [1e+00, 1e+00]
  Bounds range     [1e+00, 4e+00]
  RHS range        [9e-09, 8e+00]
Presolve removed 3 rows and 1 columns
Presolve time: 0.00s
Presolved: 5 rows, 4 columns, 12 nonzeros
Variable types: 3 continuous, 1 integer (1 binary)

Root relaxation: objective 5.000000e+00, 3 iterations, 0.00 seconds

    Nodes    |    Current Node    |     Objective Bounds      |     Work
 Expl Unexpl |  Obj  Depth IntInf | Incumbent    BestBd   Gap | It/Node Time

     0     0    5.00000    0    1          -    5.00000      -     -    0s
H    0     0                       5.0000000    5.00000  0.00%     -    0s

Explored 1 nodes (3 simplex iterations) in 0.06 seconds
Thread count was 4 (of 4 available processors)

Solution count 1: 5 

Optimal solution found (tolerance 1.00e-04)
Best objective 5.000000003306e+00, best bound 5.000000003306e+00, gap 0.0000%
Optimize a model with 10 rows, 5 columns and 28 nonzeros
Variable types: 3 continuous, 2 integer (2 binary)
Coefficient statistics:
  Matrix range     [5e-09, 4e+00]
  Objective range  [1e+00, 1e+00]
  Bounds range     [1e+00, 4e+00]
  RHS range        [9e-09, 8e+00]
Presolve removed 4 rows and 1 columns
Presolve time: 0.00s
Presolved: 6 rows, 4 columns, 15 nonzeros
Variable types: 3 continuous, 1 integer (1 binary)

Root relaxation: objective 5.499892e+00, 4 iterations, 0.00 seconds

    Nodes    |    Current Node    |     Objective Bounds      |     Work
 Expl Unexpl |  Obj  Depth IntInf | Incumbent    BestBd   Gap | It/Node Time

     0     0    5.49989    0    1          -    5.49989      -     -    0s
H    0     0                       5.5000000    5.49989  0.00%     -    0s

Explored 1 nodes (4 simplex iterations) in 0.06 seconds
Thread count was 4 (of 4 available processors)

Solution count 1: 5.5 

Optimal solution found (tolerance 1.00e-04)
Best objective 5.499999997429e+00, best bound 5.499892439348e+00, gap 0.0020%

Gurobi 8.1.1 (win64, Python) logging started 10/10/19 13:15:50

Academic license - for non-commercial use only

Gurobi 8.1.1 (win64, Python) logging started 10/10/19 13:16:53

Academic license - for non-commercial use only

Gurobi 8.1.1 (win64, Python) logging started 10/10/19 13:19:45

Academic license - for non-commercial use only

Gurobi 8.1.1 (win64, Python) logging started 10/10/19 13:20:11

Academic license - for non-commercial use only

Gurobi 8.1.1 (win64, Python) logging started 10/10/19 13:23:13

Academic license - for non-commercial use only

Gurobi 8.1.1 (win64, Python) logging started 10/10/19 13:26:58

Academic license - for non-commercial use only
Warning: Q constraint 0 doesn't have a name
Warning: Q constraint 0 doesn't have a name
Warning: Q constraint 0 doesn't have a name

Gurobi 8.1.1 (win64, Python) logging started 10/10/19 13:29:12

Academic license - for non-commercial use only
Warning: Q constraint 0 doesn't have a name
Warning: default Q constraint names used to write mps file

Gurobi 8.1.1 (win64, Python) logging started 10/10/19 13:29:45

Academic license - for non-commercial use only
Warning: Q constraint 0 doesn't have a name

Gurobi 8.1.1 (win64, Python) logging started 10/10/19 13:31:19

Academic license - for non-commercial use only

Gurobi 8.1.1 (win64, Python) logging started 10/10/19 13:33:00

Academic license - for non-commercial use only

Gurobi 8.1.1 (win64, Python) logging started 10/10/19 13:44:44

Academic license - for non-commercial use only

Gurobi 8.1.1 (win64, Python) logging started 10/10/19 13:56:09

Academic license - for non-commercial use only

Gurobi 8.1.1 (win64, Python) logging started 10/10/19 13:57:09

Academic license - for non-commercial use only

Gurobi 8.1.1 (win64, Python) logging started 10/10/19 13:58:29

Academic license - for non-commercial use only

Gurobi 8.1.1 (win64, Python) logging started 10/10/19 13:58:47

Academic license - for non-commercial use only

Gurobi 8.1.1 (win64, Python) logging started 10/10/19 13:59:39

Academic license - for non-commercial use only

Gurobi 8.1.1 (win64, Python) logging started 10/10/19 14:01:57

Academic license - for non-commercial use only

Gurobi 8.1.1 (win64, Python) logging started 10/10/19 14:05:30

Academic license - for non-commercial use only

Gurobi 8.1.1 (win64, Python) logging started 10/10/19 14:06:52

Academic license - for non-commercial use only

Gurobi 8.1.1 (win64, Python) logging started 10/10/19 14:15:41

Academic license - for non-commercial use only

Gurobi 8.1.1 (win64, Python) logging started 10/10/19 14:22:35

Academic license - for non-commercial use only

Gurobi 8.1.1 (win64, Python) logging started 10/10/19 14:22:55

Academic license - for non-commercial use only

Gurobi 8.1.1 (win64, Python) logging started 10/10/19 14:23:08

Academic license - for non-commercial use only

Gurobi 8.1.1 (win64, Python) logging started 10/10/19 14:23:40

Academic license - for non-commercial use only

Gurobi 8.1.1 (win64, Python) logging started 10/11/19 16:12:59

Academic license - for non-commercial use only

Gurobi 8.1.1 (win64, Python) logging started 10/11/19 16:13:13

Academic license - for non-commercial use only

Gurobi 8.1.1 (win64, Python) logging started 10/12/19 19:12:08

Academic license - for non-commercial use only

Gurobi 8.1.1 (win64, Python) logging started 10/12/19 19:22:56

Academic license - for non-commercial use only

Gurobi 8.1.1 (win64, Python) logging started 10/12/19 19:33:19

Academic license - for non-commercial use only

Gurobi 8.1.1 (win64, Python) logging started 10/12/19 19:33:38

Academic license - for non-commercial use only

Gurobi 8.1.1 (win64, Python) logging started 10/12/19 19:40:04

Academic license - for non-commercial use only

Gurobi 8.1.1 (win64, Python) logging started 10/12/19 19:45:55

Academic license - for non-commercial use only

Gurobi 8.1.1 (win64, Python) logging started 10/12/19 19:48:43

Academic license - for non-commercial use only

Gurobi 8.1.1 (win64, Python) logging started 10/12/19 19:55:49

Academic license - for non-commercial use only

Gurobi 8.1.1 (win64, Python) logging started 10/12/19 20:01:08

Academic license - for non-commercial use only

Gurobi 8.1.1 (win64, Python) logging started 10/12/19 20:03:47

Academic license - for non-commercial use only

Gurobi 8.1.1 (win64, Python) logging started 10/12/19 22:20:42

Academic license - for non-commercial use only

Gurobi 8.1.1 (win64, Python) logging started 10/12/19 22:39:01

Academic license - for non-commercial use only

Gurobi 8.1.1 (win64, Python) logging started 10/12/19 23:00:01

Academic license - for non-commercial use only

Gurobi 8.1.1 (win64, Python) logging started 10/12/19 23:24:12

Academic license - for non-commercial use only

Gurobi 8.1.1 (win64, Python) logging started 10/13/19 12:58:38

Academic license - for non-commercial use only

Gurobi 8.1.1 (win64, Python) logging started 10/13/19 13:15:12

Academic license - for non-commercial use only

Gurobi 8.1.1 (win64, Python) logging started 10/13/19 14:22:07

Academic license - for non-commercial use only

Gurobi 8.1.1 (win64, Python) logging started 10/13/19 14:30:23

Academic license - for non-commercial use only

Gurobi 8.1.1 (win64, Python) logging started 10/13/19 14:30:41

Academic license - for non-commercial use only

Gurobi 8.1.1 (win64, Python) logging started 10/13/19 14:34:26

Academic license - for non-commercial use only

Gurobi 8.1.1 (win64, Python) logging started 10/13/19 14:44:23

Academic license - for non-commercial use only

Gurobi 8.1.1 (win64, Python) logging started 10/13/19 14:48:16

Academic license - for non-commercial use only

Gurobi 8.1.1 (win64, Python) logging started 10/13/19 14:53:58

Academic license - for non-commercial use only

Gurobi 8.1.1 (win64, Python) logging started 10/13/19 15:10:06

Academic license - for non-commercial use only

Gurobi 8.1.1 (win64, Python) logging started 10/13/19 15:16:10

Academic license - for non-commercial use only

Gurobi 8.1.1 (win64, Python) logging started 10/13/19 15:21:40

Academic license - for non-commercial use only

Gurobi 8.1.1 (win64, Python) logging started 10/13/19 15:25:03

Academic license - for non-commercial use only

Gurobi 8.1.1 (win64, Python) logging started 10/13/19 15:36:12

Academic license - for non-commercial use only

Gurobi 8.1.1 (win64, Python) logging started 10/13/19 15:38:35

Academic license - for non-commercial use only

Gurobi 8.1.1 (win64, Python) logging started 10/13/19 15:44:08

Academic license - for non-commercial use only

Gurobi 8.1.1 (win64, Python) logging started 10/13/19 16:06:11

Academic license - for non-commercial use only

Gurobi 8.1.1 (win64, Python) logging started 10/13/19 16:06:16

Academic license - for non-commercial use only

Gurobi 8.1.1 (win64, Python) logging started 10/13/19 19:25:43

Academic license - for non-commercial use only

Gurobi 8.1.1 (win64, Python) logging started 10/13/19 19:39:37

Academic license - for non-commercial use only

Gurobi 8.1.1 (win64, Python) logging started 10/13/19 19:42:03

Academic license - for non-commercial use only

Gurobi 8.1.1 (win64, Python) logging started 10/13/19 19:47:45

Academic license - for non-commercial use only

Gurobi 8.1.1 (win64, Python) logging started 10/13/19 19:50:01

Academic license - for non-commercial use only

Gurobi 8.1.1 (win64, Python) logging started 10/13/19 19:54:09

Academic license - for non-commercial use only

Gurobi 8.1.1 (win64, Python) logging started 10/14/19 12:23:26

Academic license - for non-commercial use only

Gurobi 8.1.1 (win64, Python) logging started 10/14/19 13:20:34

Academic license - for non-commercial use only

Gurobi 8.1.1 (win64, Python) logging started 10/14/19 13:23:02

Academic license - for non-commercial use only

Gurobi 8.1.1 (win64, Python) logging started 10/14/19 13:27:41

Academic license - for non-commercial use only

Gurobi 8.1.1 (win64, Python) logging started 10/14/19 13:39:00

Academic license - for non-commercial use only

Gurobi 8.1.1 (win64, Python) logging started 10/14/19 14:50:24

Academic license - for non-commercial use only

Gurobi 8.1.1 (win64, Python) logging started 10/14/19 15:11:43

Academic license - for non-commercial use only

Gurobi 8.1.1 (win64, Python) logging started 10/14/19 15:29:58

Academic license - for non-commercial use only

Gurobi 8.1.1 (win64, Python) logging started 10/14/19 15:32:50

Academic license - for non-commercial use only

Gurobi 8.1.1 (win64, Python) logging started 10/14/19 15:47:29

Academic license - for non-commercial use only

Gurobi 8.1.1 (win64, Python) logging started 10/14/19 15:54:14

Academic license - for non-commercial use only

Gurobi 8.1.1 (win64, Python) logging started 10/14/19 16:00:44

Academic license - for non-commercial use only

Gurobi 8.1.1 (win64, Python) logging started 10/14/19 23:08:51

Academic license - for non-commercial use only

Gurobi 8.1.1 (win64, Python) logging started 10/14/19 23:36:13

Academic license - for non-commercial use only

Gurobi 8.1.1 (win64, Python) logging started 10/14/19 23:49:44

Academic license - for non-commercial use only

Gurobi 8.1.1 (win64, Python) logging started 10/15/19 00:25:20

Academic license - for non-commercial use only

Gurobi 8.1.1 (win64, Python) logging started 10/15/19 00:26:27

Academic license - for non-commercial use only

Gurobi 8.1.1 (win64, Python) logging started 10/15/19 00:30:46

Academic license - for non-commercial use only

Gurobi 8.1.1 (win64, Python) logging started 10/15/19 00:31:15

Academic license - for non-commercial use only

Gurobi 8.1.1 (win64, Python) logging started 10/15/19 00:46:34

Academic license - for non-commercial use only

Gurobi 8.1.1 (win64, Python) logging started 10/15/19 01:11:34

Academic license - for non-commercial use only

Gurobi 8.1.1 (win64, Python) logging started 10/15/19 01:26:36

Academic license - for non-commercial use only

Gurobi 8.1.1 (win64, Python) logging started 10/15/19 01:49:11

Academic license - for non-commercial use only

Gurobi 8.1.1 (win64, Python) logging started 10/15/19 02:30:09

Academic license - for non-commercial use only

Gurobi 8.1.1 (win64, Python) logging started 10/15/19 13:37:48

Academic license - for non-commercial use only

Gurobi 8.1.1 (win64, Python) logging started 10/15/19 14:18:55

Academic license - for non-commercial use only

Gurobi 8.1.1 (win64, Python) logging started 10/15/19 14:19:24

Academic license - for non-commercial use only

Gurobi 8.1.1 (win64, Python) logging started 10/15/19 14:23:27

Academic license - for non-commercial use only

Gurobi 8.1.1 (win64, Python) logging started 10/15/19 14:34:27

Academic license - for non-commercial use only

Gurobi 8.1.1 (win64, Python) logging started 10/15/19 14:46:35

Academic license - for non-commercial use only

Gurobi 8.1.1 (win64, Python) logging started 10/15/19 15:06:20

Academic license - for non-commercial use only

Gurobi 8.1.1 (win64, Python) logging started 10/15/19 15:08:44

Academic license - for non-commercial use only

Gurobi 8.1.1 (win64, Python) logging started 10/15/19 16:56:27

Academic license - for non-commercial use only

Gurobi 8.1.1 (win64, Python) logging started 10/15/19 17:16:34

Academic license - for non-commercial use only

Gurobi 8.1.1 (win64, Python) logging started 10/15/19 19:28:57

Academic license - for non-commercial use only

Gurobi 8.1.1 (win64, Python) logging started 10/15/19 19:39:29

Academic license - for non-commercial use only

Gurobi 8.1.1 (win64, Python) logging started 10/15/19 21:10:21

Academic license - for non-commercial use only

Gurobi 8.1.1 (win64, Python) logging started 10/15/19 21:59:34

Academic license - for non-commercial use only

Gurobi 8.1.1 (win64, Python) logging started 10/15/19 22:01:25

Academic license - for non-commercial use only

Gurobi 8.1.1 (win64, Python) logging started 10/15/19 22:01:52

Academic license - for non-commercial use only

Gurobi 8.1.1 (win64, Python) logging started 10/15/19 22:02:40

Academic license - for non-commercial use only

Gurobi 8.1.1 (win64, Python) logging started 10/15/19 22:03:38

Academic license - for non-commercial use only

Gurobi 8.1.1 (win64, Python) logging started 10/15/19 22:04:12

Academic license - for non-commercial use only

Gurobi 8.1.1 (win64, Python) logging started 10/15/19 22:05:55

Academic license - for non-commercial use only

Gurobi 8.1.1 (win64, Python) logging started 10/15/19 22:07:01

Academic license - for non-commercial use only

Gurobi 8.1.1 (win64, Python) logging started 10/15/19 22:08:17

Academic license - for non-commercial use only

Gurobi 8.1.1 (win64, Python) logging started 10/15/19 22:37:19

Academic license - for non-commercial use only

Gurobi 8.1.1 (win64, Python) logging started 10/15/19 22:39:41

Academic license - for non-commercial use only

Gurobi 8.1.1 (win64, Python) logging started 10/15/19 22:41:00

Academic license - for non-commercial use only

Gurobi 8.1.1 (win64, Python) logging started 10/15/19 23:01:27

Academic license - for non-commercial use only

Gurobi 8.1.1 (win64, Python) logging started 10/15/19 23:02:30

Academic license - for non-commercial use only

Gurobi 8.1.1 (win64, Python) logging started 10/16/19 00:00:50

Academic license - for non-commercial use only

Gurobi 8.1.1 (win64, Python) logging started 10/16/19 17:21:56

Academic license - for non-commercial use only

Gurobi 8.1.1 (win64, Python) logging started 10/16/19 17:24:59

Academic license - for non-commercial use only

Gurobi 8.1.1 (win64, Python) logging started 10/16/19 17:48:21

Academic license - for non-commercial use only

Gurobi 8.1.1 (win64, Python) logging started 10/16/19 17:53:57

Academic license - for non-commercial use only

Gurobi 8.1.1 (win64, Python) logging started 10/16/19 18:21:21

Academic license - for non-commercial use only

Gurobi 8.1.1 (win64, Python) logging started 10/16/19 18:22:16

Academic license - for non-commercial use only

Gurobi 8.1.1 (win64, Python) logging started 10/16/19 18:24:42

Academic license - for non-commercial use only

Gurobi 8.1.1 (win64, Python) logging started 10/16/19 18:29:23

Academic license - for non-commercial use only

Gurobi 8.1.1 (win64, Python) logging started 10/16/19 18:34:38

Academic license - for non-commercial use only

Gurobi 8.1.1 (win64, Python) logging started 10/16/19 18:39:56

Academic license - for non-commercial use only

Gurobi 8.1.1 (win64, Python) logging started 10/16/19 18:48:14

Academic license - for non-commercial use only

Gurobi 8.1.1 (win64, Python) logging started 10/16/19 18:49:54

Academic license - for non-commercial use only

Gurobi 8.1.1 (win64, Python) logging started 10/16/19 18:54:24

Academic license - for non-commercial use only

Gurobi 8.1.1 (win64, Python) logging started 10/16/19 18:56:20

Academic license - for non-commercial use only

Gurobi 8.1.1 (win64, Python) logging started 10/16/19 19:02:44

Academic license - for non-commercial use only

Gurobi 8.1.1 (win64, Python) logging started 10/16/19 19:03:10

Academic license - for non-commercial use only

Gurobi 8.1.1 (win64, Python) logging started 10/16/19 19:04:50

Academic license - for non-commercial use only

Gurobi 8.1.1 (win64, Python) logging started 10/16/19 19:08:17

Academic license - for non-commercial use only

Gurobi 8.1.1 (win64, Python) logging started 10/16/19 19:09:35

Academic license - for non-commercial use only

Gurobi 8.1.1 (win64, Python) logging started 10/16/19 19:11:31

Academic license - for non-commercial use only

Gurobi 8.1.1 (win64, Python) logging started 10/16/19 19:12:18

Academic license - for non-commercial use only

Gurobi 8.1.1 (win64, Python) logging started 10/16/19 19:13:31

Academic license - for non-commercial use only

Gurobi 8.1.1 (win64, Python) logging started 10/16/19 19:14:09

Academic license - for non-commercial use only

Gurobi 8.1.1 (win64, Python) logging started 10/16/19 19:15:46

Academic license - for non-commercial use only

Gurobi 8.1.1 (win64, Python) logging started 10/16/19 19:16:25

Academic license - for non-commercial use only

Gurobi 8.1.1 (win64, Python) logging started 10/16/19 19:16:47

Academic license - for non-commercial use only

Gurobi 8.1.1 (win64, Python) logging started 10/16/19 19:17:59

Academic license - for non-commercial use only

Gurobi 8.1.1 (win64, Python) logging started 10/16/19 19:19:14

Academic license - for non-commercial use only

Gurobi 8.1.1 (win64, Python) logging started 10/16/19 19:19:55

Academic license - for non-commercial use only

Gurobi 8.1.1 (win64, Python) logging started 10/16/19 19:20:50

Academic license - for non-commercial use only

Gurobi 8.1.1 (win64, Python) logging started 10/16/19 19:46:45

Academic license - for non-commercial use only

Gurobi 8.1.1 (win64, Python) logging started 10/16/19 19:49:20

Academic license - for non-commercial use only

Gurobi 8.1.1 (win64, Python) logging started 10/16/19 19:54:28

Academic license - for non-commercial use only

Gurobi 8.1.1 (win64, Python) logging started 10/16/19 19:56:58

Academic license - for non-commercial use only

Gurobi 8.1.1 (win64, Python) logging started 10/16/19 20:04:41

Academic license - for non-commercial use only

Gurobi 8.1.1 (win64, Python) logging started 10/16/19 20:06:29

Academic license - for non-commercial use only

Gurobi 8.1.1 (win64, Python) logging started 10/16/19 21:54:48

Academic license - for non-commercial use only

Gurobi 8.1.1 (win64, Python) logging started 10/16/19 22:23:56

Academic license - for non-commercial use only

Gurobi 8.1.1 (win64, Python) logging started 10/16/19 22:31:24

Academic license - for non-commercial use only
Optimize a model with 18688 rows, 68605 columns and 207295 nonzeros
Variable types: 68601 continuous, 4 integer (4 binary)
Coefficient statistics:
  Matrix range     [4e-01, 1e+06]
  Objective range  [1e+00, 1e+00]
  Bounds range     [1e+00, 1e+00]
  RHS range        [2e+00, 6e+06]
Presolve removed 17753 rows and 64405 columns
Presolve time: 0.15s
Presolved: 935 rows, 4200 columns, 11906 nonzeros
Variable types: 4200 continuous, 0 integer (0 binary)

Root relaxation: infeasible, 1125 iterations, 0.03 seconds

    Nodes    |    Current Node    |     Objective Bounds      |     Work
 Expl Unexpl |  Obj  Depth IntInf | Incumbent    BestBd   Gap | It/Node Time

     0     0 infeasible    0               - infeasible      -     -    0s

Explored 0 nodes (1125 simplex iterations) in 0.24 seconds
Thread count was 4 (of 4 available processors)

Solution count 0

Model is infeasible
Best objective -, best bound -, gap -

Gurobi 8.1.1 (win64, Python) logging started 10/16/19 22:51:09

Academic license - for non-commercial use only

Gurobi 8.1.1 (win64, Python) logging started 10/16/19 22:52:37

Academic license - for non-commercial use only

Gurobi 8.1.1 (win64, Python) logging started 10/16/19 22:53:59

Academic license - for non-commercial use only

Gurobi 8.1.1 (win64, Python) logging started 10/16/19 22:59:20

Academic license - for non-commercial use only

Gurobi 8.1.1 (win64, Python) logging started 10/16/19 23:00:22

Academic license - for non-commercial use only

Gurobi 8.1.1 (win64, Python) logging started 10/16/19 23:01:08

Academic license - for non-commercial use only

Gurobi 8.1.1 (win64, Python) logging started 10/16/19 23:20:26

Academic license - for non-commercial use only

Gurobi 8.1.1 (win64, Python) logging started 10/16/19 23:21:39

Academic license - for non-commercial use only

Gurobi 8.1.1 (win64, Python) logging started 10/16/19 23:25:25

Academic license - for non-commercial use only

Gurobi 8.1.1 (win64, Python) logging started 10/16/19 23:28:28

Academic license - for non-commercial use only

Gurobi 8.1.1 (win64, Python) logging started 10/16/19 23:29:31

Academic license - for non-commercial use only

Gurobi 8.1.1 (win64, Python) logging started 10/16/19 23:37:45

Academic license - for non-commercial use only

Gurobi 8.1.1 (win64, Python) logging started 10/16/19 23:38:32

Academic license - for non-commercial use only

Gurobi 8.1.1 (win64, Python) logging started 10/16/19 23:38:59

Academic license - for non-commercial use only

Gurobi 8.1.1 (win64, Python) logging started 10/16/19 23:39:45

Academic license - for non-commercial use only

Gurobi 8.1.1 (win64, Python) logging started 10/16/19 23:40:21

Academic license - for non-commercial use only

Gurobi 8.1.1 (win64, Python) logging started 10/16/19 23:52:03

Academic license - for non-commercial use only

Gurobi 8.1.1 (win64, Python) logging started 10/17/19 00:04:34

Academic license - for non-commercial use only

Gurobi 8.1.1 (win64, Python) logging started 10/17/19 00:05:52

Academic license - for non-commercial use only

Gurobi 8.1.1 (win64, Python) logging started 10/17/19 00:14:36

Academic license - for non-commercial use only

Gurobi 8.1.1 (win64, Python) logging started 10/17/19 15:09:26

Academic license - for non-commercial use only

Gurobi 8.1.1 (win64, Python) logging started 10/17/19 15:12:47

Academic license - for non-commercial use only

Gurobi 8.1.1 (win64, Python) logging started 10/17/19 15:16:52

Academic license - for non-commercial use only

Gurobi 8.1.1 (win64, Python) logging started 10/17/19 15:22:26

Academic license - for non-commercial use only

Gurobi 8.1.1 (win64, Python) logging started 10/17/19 15:37:06

Academic license - for non-commercial use only

Gurobi 8.1.1 (win64, Python) logging started 10/17/19 16:08:06

Academic license - for non-commercial use only

Gurobi 8.1.1 (win64, Python) logging started 10/17/19 16:15:33

Academic license - for non-commercial use only

Gurobi 8.1.1 (win64, Python) logging started 10/17/19 16:15:43

Academic license - for non-commercial use only

Gurobi 8.1.1 (win64, Python) logging started 10/17/19 16:16:21

Academic license - for non-commercial use only
